experiments/mac_chuffed/detailed-output/inst-39-1859906808.dzn

A = 3;
T = 7;
X = 7;
Y = 7;
Z = 6;
building = array2d(0..6, 0..6,
                   [0, 0, 0, 0, 0, 0, 0, 0, 0, 1, 3, 1, 0, 0, 0, 0, 0, 0, 0, 0, 0, 0, 0, 0, 0, 0, 0, 0,
                    0, 0, 0, 0, 0, 0, 0, 0, 0, 5, 5, 0, 3, 0, 0, 0, 0, 0, 0, 0, 0]);
